c Random 4-CNF over 30 variables and 60 clauses
c Generated with `cnfgen`
c (C) 2012-2016 Massimo Lauria <lauria.massimo@gmail.com>
c https://massimolauria.github.io/cnfgen
c
c COMMAND LINE: cnfgen --output tmp-4-30-60.dimacs --output-format dimacs randkcnf 4 30 60
c
c sdimacs generated by gen-sdimacs
c
p cnf 30 60
r 0.5 1 2 3 4 5 6 7 8 9 10 11 12 13 14 15 0
e  16 17 18 19 20 21 22 23 24 25 26 27 28 29 30 0
-5 -13 -21 30 0
-5 -19 24 -26 0
-14 -21 25 29 0
-11 -14 17 -28 0
-6 -8 -25 -30 0
13 -24 26 -29 0
-2 -8 14 -23 0
-7 22 -26 30 0
4 -14 -27 29 0
-5 -12 -18 22 0
3 11 -16 -21 0
-2 8 -9 25 0
-3 16 -17 18 0
12 24 26 30 0
5 -21 -22 -26 0
-9 14 16 -23 0
1 19 -20 -29 0
-2 10 17 -28 0
-3 -15 -29 -30 0
5 -10 17 -24 0
3 -14 -18 -25 0
-1 -7 17 21 0
11 16 -20 -25 0
-8 -12 -17 -25 0
-11 15 -18 28 0
2 17 -18 -24 0
-11 -18 22 29 0
-5 -11 19 -26 0
3 -12 -20 -22 0
-1 6 -20 -27 0
-5 -21 24 29 0
9 -16 20 26 0
-8 -13 -17 -18 0
-1 -5 10 30 0
-6 -9 -10 -12 0
1 10 15 -26 0
10 -13 -19 -29 0
3 8 -10 19 0
-10 -24 -29 -30 0
7 -15 -16 27 0
3 13 25 -29 0
7 -21 -26 -30 0
-1 -7 -12 13 0
-11 -15 17 23 0
7 -9 19 21 0
-4 -15 -18 -30 0
1 -3 5 19 0
1 10 22 24 0
3 16 -25 29 0
-2 -7 17 27 0
7 12 -21 24 0
-7 -8 10 -16 0
-13 -17 -22 -29 0
-6 -7 20 -24 0
-2 -16 19 -21 0
-9 -11 -12 17 0
-4 -6 11 25 0
14 15 26 30 0
3 -9 -27 29 0
-3 -17 21 -24 0
